param n := 60;
param c := 10000
param : V : p w :=
   0	  98	 379
   1	  26	 293
   2	  14	 328
   3	   8	 470
   4	  67	 251
   5	   3	 279
   6	  12	 411
   7	  42	 253
   8	  35	 336
   9	  46	 414
  10	  28	 276
  11	  48	 310
  12	  71	 418
  13	  69	 286
  14	  27	 296
  15	  72	 378
  16	  30	 296
  17	  16	 326
  18	  42	 428
  19	  43	 281
  20	  48	 291
  21	  33	 455
  22	   7	 264
  23	  47	 281
  24	  94	 494
  25	  32	 252
  26	  54	 254
  27	  24	 478
  28	  36	 258
  29	  22	 264
  30	  62	 409
  31	  71	 287
  32	  87	 304
  33	  61	 425
  34	  90	 256
  35	  67	 319
  36	  33	 402
  37	  17	 252
  38	   4	 346
  39	  49	 403
  40	   3	 283
  41	  68	 314
  42	  99	 401
  43	  59	 284
  44	  70	 315
  45	  62	 434
  46	  82	 282
  47	   6	 284
  48	  54	 496
  49	  51	 251
  50	  74	 253
  51	  41	 491
  52	  84	 253
  53	  15	 256
  54	  30	 498
  55	  53	 250
  56	  87	 252
  57	  89	 379
  58	  69	 264
  59	   7	 357
;

set E :=
   0	   1
   0	   6
   0	   9
   0	  14
   0	  16
   0	  19
   0	  20
   0	  21
   0	  22
   0	  23
   0	  24
   0	  25
   0	  29
   0	  30
   0	  34
   0	  35
   0	  36
   0	  39
   0	  41
   0	  42
   0	  46
   0	  47
   0	  48
   0	  49
   0	  50
   0	  53
   0	  54
   0	  56
   1	   2
   1	   4
   1	  11
   1	  15
   1	  18
   1	  22
   1	  26
   1	  27
   1	  28
   1	  29
   1	  30
   1	  34
   1	  35
   1	  37
   1	  39
   1	  40
   1	  43
   1	  45
   1	  47
   1	  49
   1	  51
   1	  54
   1	  58
   2	   3
   2	   4
   2	   9
   2	  10
   2	  13
   2	  14
   2	  15
   2	  17
   2	  19
   2	  21
   2	  22
   2	  31
   2	  32
   2	  36
   2	  37
   2	  39
   2	  42
   2	  44
   2	  46
   2	  50
   2	  54
   2	  58
   3	   8
   3	  15
   3	  17
   3	  19
   3	  20
   3	  21
   3	  22
   3	  24
   3	  26
   3	  27
   3	  28
   3	  30
   3	  33
   3	  34
   3	  38
   3	  39
   3	  40
   3	  45
   3	  47
   3	  50
   3	  53
   3	  54
   3	  55
   3	  57
   3	  58
   3	  59
   4	   8
   4	  13
   4	  16
   4	  20
   4	  21
   4	  23
   4	  33
   4	  36
   4	  38
   4	  42
   4	  47
   4	  50
   4	  51
   4	  56
   4	  57
   5	   9
   5	  11
   5	  12
   5	  13
   5	  16
   5	  17
   5	  18
   5	  23
   5	  24
   5	  25
   5	  27
   5	  29
   5	  30
   5	  32
   5	  36
   5	  37
   5	  38
   5	  39
   5	  44
   5	  45
   5	  46
   5	  47
   5	  52
   5	  53
   5	  55
   5	  57
   5	  59
   6	   7
   6	   9
   6	  11
   6	  12
   6	  13
   6	  16
   6	  17
   6	  19
   6	  21
   6	  25
   6	  36
   6	  38
   6	  42
   6	  45
   6	  48
   6	  50
   7	   8
   7	  10
   7	  12
   7	  13
   7	  16
   7	  21
   7	  23
   7	  24
   7	  25
   7	  29
   7	  31
   7	  33
   7	  39
   7	  44
   7	  48
   7	  49
   7	  50
   7	  52
   7	  55
   7	  56
   7	  57
   7	  58
   8	  10
   8	  15
   8	  16
   8	  19
   8	  21
   8	  23
   8	  24
   8	  25
   8	  27
   8	  29
   8	  31
   8	  36
   8	  37
   8	  38
   8	  42
   8	  48
   8	  51
   8	  58
   9	  11
   9	  13
   9	  15
   9	  17
   9	  18
   9	  22
   9	  24
   9	  30
   9	  31
   9	  32
   9	  33
   9	  34
   9	  35
   9	  38
   9	  40
   9	  43
   9	  46
   9	  49
   9	  50
   9	  52
   9	  53
   9	  54
   9	  55
  10	  11
  10	  12
  10	  21
  10	  24
  10	  25
  10	  28
  10	  29
  10	  30
  10	  34
  10	  36
  10	  37
  10	  42
  10	  45
  10	  46
  10	  47
  10	  48
  10	  50
  10	  51
  10	  55
  10	  57
  10	  58
  10	  59
  11	  12
  11	  13
  11	  14
  11	  15
  11	  16
  11	  17
  11	  18
  11	  19
  11	  20
  11	  21
  11	  23
  11	  24
  11	  27
  11	  29
  11	  30
  11	  38
  11	  40
  11	  46
  11	  48
  11	  49
  11	  55
  11	  58
  11	  59
  12	  17
  12	  19
  12	  20
  12	  22
  12	  23
  12	  24
  12	  26
  12	  27
  12	  31
  12	  32
  12	  33
  12	  34
  12	  38
  12	  41
  12	  42
  12	  46
  12	  50
  12	  51
  12	  52
  12	  54
  12	  55
  12	  58
  13	  14
  13	  15
  13	  16
  13	  18
  13	  19
  13	  20
  13	  23
  13	  24
  13	  25
  13	  29
  13	  30
  13	  34
  13	  35
  13	  43
  13	  52
  13	  53
  14	  20
  14	  21
  14	  24
  14	  26
  14	  28
  14	  32
  14	  34
  14	  35
  14	  37
  14	  38
  14	  40
  14	  41
  14	  45
  14	  47
  14	  48
  14	  50
  14	  51
  14	  52
  14	  54
  14	  58
  14	  59
  15	  16
  15	  17
  15	  21
  15	  24
  15	  27
  15	  31
  15	  33
  15	  34
  15	  35
  15	  39
  15	  44
  15	  45
  15	  49
  15	  52
  15	  53
  15	  56
  15	  58
  16	  20
  16	  24
  16	  25
  16	  27
  16	  30
  16	  31
  16	  32
  16	  35
  16	  37
  16	  38
  16	  40
  16	  43
  16	  45
  16	  47
  16	  49
  16	  51
  16	  55
  16	  56
  17	  18
  17	  22
  17	  24
  17	  26
  17	  28
  17	  29
  17	  30
  17	  33
  17	  37
  17	  39
  17	  41
  17	  45
  17	  51
  17	  52
  17	  53
  17	  55
  17	  58
  18	  21
  18	  22
  18	  23
  18	  24
  18	  28
  18	  32
  18	  33
  18	  35
  18	  36
  18	  38
  18	  45
  18	  47
  18	  51
  18	  52
  18	  53
  18	  55
  18	  56
  18	  59
  19	  22
  19	  23
  19	  24
  19	  25
  19	  26
  19	  28
  19	  31
  19	  32
  19	  35
  19	  36
  19	  38
  19	  41
  19	  44
  19	  47
  19	  48
  19	  49
  19	  50
  19	  56
  19	  57
  19	  58
  19	  59
  20	  22
  20	  24
  20	  25
  20	  28
  20	  33
  20	  35
  20	  40
  20	  44
  20	  48
  20	  49
  20	  50
  20	  52
  20	  53
  20	  58
  20	  59
  21	  25
  21	  28
  21	  30
  21	  33
  21	  35
  21	  37
  21	  39
  21	  41
  21	  42
  21	  45
  21	  47
  21	  48
  21	  50
  21	  52
  21	  53
  21	  56
  22	  25
  22	  26
  22	  29
  22	  30
  22	  31
  22	  34
  22	  35
  22	  37
  22	  41
  22	  42
  22	  43
  22	  44
  22	  47
  22	  48
  22	  49
  22	  50
  22	  51
  22	  55
  22	  57
  23	  27
  23	  29
  23	  30
  23	  32
  23	  34
  23	  37
  23	  42
  23	  44
  23	  46
  23	  48
  23	  51
  23	  52
  23	  58
  24	  28
  24	  29
  24	  30
  24	  32
  24	  33
  24	  35
  24	  40
  24	  44
  24	  51
  24	  53
  25	  29
  25	  33
  25	  34
  25	  35
  25	  37
  25	  39
  25	  42
  25	  44
  25	  48
  25	  59
  26	  28
  26	  29
  26	  30
  26	  31
  26	  32
  26	  35
  26	  38
  26	  42
  26	  43
  26	  45
  26	  47
  26	  48
  26	  50
  26	  51
  26	  53
  26	  56
  26	  58
  27	  28
  27	  29
  27	  33
  27	  36
  27	  37
  27	  40
  27	  46
  27	  50
  27	  53
  27	  54
  27	  56
  27	  57
  28	  29
  28	  30
  28	  34
  28	  36
  28	  38
  28	  39
  28	  40
  28	  42
  28	  45
  28	  46
  28	  49
  28	  52
  28	  53
  28	  58
  28	  59
  29	  31
  29	  32
  29	  36
  29	  37
  29	  40
  29	  43
  29	  44
  29	  47
  29	  48
  29	  50
  29	  51
  29	  54
  29	  56
  29	  58
  30	  32
  30	  33
  30	  37
  30	  38
  30	  40
  30	  45
  30	  46
  30	  56
  30	  57
  31	  37
  31	  57
  32	  34
  32	  39
  32	  40
  32	  42
  32	  45
  32	  46
  32	  47
  32	  49
  32	  54
  32	  56
  33	  34
  33	  36
  33	  37
  33	  48
  33	  49
  33	  52
  33	  54
  33	  58
  34	  36
  34	  37
  34	  40
  34	  45
  34	  46
  34	  51
  34	  54
  34	  59
  35	  41
  35	  42
  35	  48
  35	  50
  35	  53
  35	  58
  35	  59
  36	  37
  36	  38
  36	  43
  36	  46
  36	  53
  36	  55
  36	  56
  36	  58
  36	  59
  37	  41
  37	  42
  37	  45
  37	  51
  37	  53
  37	  56
  37	  57
  37	  58
  37	  59
  38	  39
  38	  40
  38	  41
  38	  42
  38	  43
  38	  44
  38	  46
  38	  52
  38	  54
  38	  56
  38	  57
  38	  58
  39	  43
  39	  47
  39	  48
  39	  49
  39	  52
  39	  53
  39	  54
  39	  58
  40	  42
  40	  44
  40	  48
  40	  49
  40	  50
  40	  51
  40	  55
  40	  56
  40	  57
  41	  43
  41	  47
  41	  52
  41	  54
  41	  57
  42	  44
  42	  45
  42	  47
  42	  51
  42	  52
  42	  55
  42	  56
  42	  57
  42	  58
  42	  59
  43	  44
  43	  45
  43	  47
  43	  53
  43	  58
  44	  45
  44	  46
  44	  49
  44	  55
  44	  57
  44	  59
  45	  47
  45	  50
  45	  53
  45	  54
  45	  56
  45	  58
  46	  52
  46	  54
  47	  48
  47	  51
  47	  54
  47	  57
  47	  58
  48	  49
  48	  50
  48	  51
  48	  54
  48	  59
  49	  50
  49	  52
  49	  53
  49	  54
  49	  57
  50	  51
  50	  53
  50	  55
  50	  56
  50	  57
  51	  54
  51	  55
  51	  57
  51	  58
  51	  59
  52	  53
  52	  58
  53	  54
  53	  56
  53	  57
  53	  59
  54	  55
  54	  57
  54	  59
  55	  56
  55	  59
  56	  59
  57	  58
  58	  59
;
